letting n =  10
letting blocks =  [[1, 3], [1, 7], [2, 2], [2, 6], [2, 9], [3, 1], [3, 5], [4, 1], [4, 2], [4, 7], [5, 2], [5, 7], [5, 10], [6, 3], [6, 7], [7, 8], [7, 9], [8, 6], [9, 6], [9, 9], [10, 3], [10, 4], [10, 8], [10, 10]]
